12
0 8 0 41 26 19 63 1 25 28 100 94 
8 0 9 41 55 95 67 91 31 63 29 67 
0 9 0 8 92 77 44 29 60 52 22 84 
41 41 8 0 52 81 48 26 30 77 91 52 
26 55 92 52 0 39 13 9 2 67 91 32 
19 95 77 81 39 0 57 97 73 66 87 39 
63 67 44 48 13 57 0 9 39 34 46 41 
1 91 29 26 9 97 9 0 69 93 71 75 
25 31 60 30 2 73 39 69 0 25 10 79 
28 63 52 77 67 66 34 93 25 0 7 77 
100 29 22 91 91 87 46 71 10 7 0 6 
94 67 84 52 32 39 41 75 79 77 6 0 
RRBBBBRRRBRB
